============================[ Problem Statistics ]=============================|                                                                             ||  Number of variables:          4242                                         ||  Number of clauses:            9963                                         ||  Parse time:                   0.36 s                                       ||                                                                             |============================[ Search Statistics ]==============================| Conflicts |          ORIGINAL         |          LEARNT          | Progress ||           |    Vars  Clauses Literals |    Limit  Clauses Lit/Cl |          |===============================================================================|       100 |    1591     6168   560689 |     2261      100     53 | 62.501 % |===============================================================================restarts              : 3conflicts             : 205            (378 /sec)decisions             : 471            (0.00 % random) (869 /sec)propagations          : 11662          (21517 /sec)conflict literals     : 14557          (95.13 % deleted)CPU time              : 0.542 sSATISFIABLE